step,max
1,19572
2,19572
3,19572
4,19572
5,19572
6,19572
7,19628
8,19628
9,19628
10,19628
11,19628
12,19628
13,19628
14,19628
15,19628
16,19628
17,19628
18,19628
19,19628
20,19628
21,19628
22,19628
23,19628
24,19628
25,19628
26,19628
27,19628
28,19628
29,19628
30,19727
31,19727
32,19727
33,19727
34,19727
35,19727
36,19727
37,19727
38,19727
39,19727
40,19727
41,19727
42,19727
43,19727
44,19727
45,19727
46,19727
47,19727
48,20170
49,20170
50,20170
51,20390
52,20390
53,20390
54,20390
55,20390
56,20390
57,20390
58,20390
59,20390
60,20390
61,20390
62,20390
63,20390
64,20390
65,20390
66,20390
67,20390
68,20390
69,20390
70,20390
71,20390
72,20390
73,20390
74,20390
75,20390
76,20390
77,20390
78,20390
79,20390
80,20390
81,20390
82,20390
83,20390
84,20390
85,20390
86,20390
87,20390
88,20390
89,20390
90,20544
91,20544
92,20544
93,20544
94,20544
95,20544
96,20544
97,20544
98,20544
99,20544
100,20544
101,20544
102,20544
103,20544
104,20544
105,20544
106,20544
107,20544
108,20544
109,20544
110,20544
111,20544
112,20544
113,20544
114,20544
115,20544
116,20544
117,20544
118,20544
119,20544
120,20757
121,20757
122,20757
123,20757
124,20757
125,20757
126,20757
127,20757
128,20757
129,20757
130,20757
131,20757
132,20757
133,20757
134,20757
135,20757
136,20757
137,20757
138,20757
139,20757
140,20757
141,20757
142,20757
143,20757
144,20757
145,20757
146,20757
147,20757
148,20757
149,20757
150,20757
151,20757
152,20757
153,20757
154,20757
155,20757
156,20757
157,20757
158,20757
159,20757
160,20757
161,20757
162,20757
163,20757
164,20757
165,20757
166,20757
167,20757
168,20757
169,20757
170,20757
171,20757
172,20757
173,20757
174,20757
175,20757
176,20757
177,20757
178,20757
179,20757
180,20757
181,20757
182,20757
183,20757
184,20757
185,20757
186,20757
187,20757
188,20757
189,20757
190,20757
191,20757
192,20757
193,20757
194,20757
195,20757
196,20757
197,20820
198,20820
199,20820
200,20820
201,20820
202,20820
203,20820
204,20820
205,20820
206,20820
207,20820
208,20820
209,20820
210,20820
211,20820
212,20820
213,20820
214,20820
215,20820
216,20820
217,20820
218,21114
219,21114
220,21114
221,21114
222,21114
223,21114
224,21114
225,21114
226,21114
227,21114
228,21114
229,21114
230,21114
231,21114
232,21114
233,21114
234,21114
235,21114
236,21114
237,21114
238,21114
239,21114
240,21114
241,21114
242,21114
243,21114
244,21114
245,21114
246,21114
247,21114
248,21114
249,21114
250,21114
251,21114
252,21114
253,21114
254,21114
255,21114
256,21114
257,21114
258,21114
259,21114
260,21114
261,21114
262,21114
263,21114
264,21114
265,21114
266,21114
267,21114
268,21114
269,21114
270,21114
271,21114
272,21114
273,21114
274,21114
275,21114
276,21114
277,21114
278,21114
279,21114
280,21114
281,21114
282,21114
283,21114
284,21114
285,21114
286,21114
287,21114
288,21114
289,21114
290,21114
291,21114
292,21114
293,21114
294,21114
295,21114
296,21114
297,21114
298,21114
299,22134
300,22134
301,22134
302,22134
303,22134
304,22134
305,22134
306,22134
307,22134
308,22134
309,22134
310,22134
311,22134
312,22134
313,22134
314,22134
315,22134
316,22134
317,22134
318,22134
319,22134
320,22134
321,22134
322,22134
323,22134
324,22134
325,22134
326,22134
327,22134
328,22134
329,22134
330,22134
331,22134
332,22134
333,22134
334,22134
335,22134
336,22134
337,22134
338,22134
339,22134
340,22134
341,22134
342,22134
343,22134
344,22134
345,22134
346,22134
347,22134
348,22134
349,22134
350,22134
351,22134
352,22134
353,22134
354,22134
355,22134
356,22134
357,22134
358,22134
359,22134
360,22134
361,22134
362,22134
363,22134
364,22134
365,22134
366,22134
367,22134
368,22134
369,22134
370,22134
371,22134
372,22134
373,22134
374,22134
375,22134
376,22134
377,22134
378,22134
379,22134
380,22134
381,22134
382,22134
383,22134
384,22134
385,22134
386,22134
387,22134
388,22134
389,22134
390,22134
391,22134
392,22134
393,22134
394,22134
395,22134
396,22134
397,22134
398,22134
399,22134
400,22134
401,22134
402,22134
403,22134
404,22134
405,22134
406,22134
407,22134
408,22134
409,22134
410,22134
411,22134
412,22134
413,22134
414,22134
415,22134
416,22134
417,22134
418,22134
419,22134
420,22134
421,22134
422,22134
423,22134
424,22134
425,22134
426,22134
427,22134
428,22134
429,22134
430,22134
431,22134
432,22134
433,22134
434,22134
435,22134
436,22134
437,22134
438,22134
439,22134
440,22134
441,22134
442,22134
443,22134
444,22134
445,22134
446,22134
447,22134
448,22134
449,22134
450,22134
451,22134
452,22134
453,22134
454,22134
455,22134
456,22134
457,22134
458,22134
459,22134
460,22134
461,22134
462,22134
463,22134
464,22134
465,22134
466,22134
467,22134
468,22134
469,22134
470,22134
471,22134
472,22134
473,22134
474,22134
475,22134
476,22134
477,22134
478,22134
479,22134
480,22134
481,22134
482,22134
483,22134
484,22134
485,22134
486,22134
487,22134
488,22134
489,22134
490,22134
491,22134
492,22134
493,22134
494,22134
495,22134
496,22134
497,22134
498,22134
499,22134
500,22134
501,22134
502,22134
503,22134
504,22134
505,22134
506,22134
507,22134
508,22134
509,22134
510,22134
511,22134
512,22134
513,22134
514,22134
515,22134
516,22134
517,22134
518,22134
519,22134
520,22134
521,22134
522,22134
523,22134
524,22134
525,22134
526,22134
527,22134
528,22134
529,22134
530,22134
531,22134
532,22134
533,22134
534,22134
535,22134
536,22134
537,22134
538,22134
539,22134
540,22134
541,22134
542,22134
543,22134
544,22379
545,22379
546,22379
547,22379
548,22379
549,22379
550,22379
551,22379
552,22379
553,22379
554,22379
555,22379
556,22379
557,22379
558,22379
559,22379
560,22379
561,22379
562,22379
563,22379
564,22379
565,22379
566,22379
567,22379
568,22379
569,22379
570,22379
571,22379
572,22379
573,22379
574,22379
575,22379
576,22379
577,22379
578,22379
579,22379
580,22379
581,22379
582,22379
583,22379
584,22379
585,22379
586,22379
587,22379
588,22379
589,22379
590,22379
591,22379
592,22379
593,22379
594,22379
595,22379
596,22379
597,22379
598,22379
599,22379
600,22379
601,22379
602,22379
603,22379
604,22379
605,22379
606,22379
607,22379
608,22379
609,22379
610,22379
611,22379
612,22379
613,22379
614,22379
615,22379
616,22379
617,22379
618,22379
619,22379
620,22379
621,22379
622,22379
623,22379
624,22379
625,22379
626,22379
627,22379
628,22379
629,22379
630,22379
631,22379
632,22379
633,22379
634,22379
635,22379
636,22379
637,22379
638,22379
639,22379
640,22379
641,22379
642,22379
643,22379
644,22379
645,22379
646,22379
647,22379
648,22379
649,22379
650,22379
651,22379
652,22379
653,22379
654,22379
655,22379
656,22379
657,22379
658,22379
659,22379
660,22379
661,22379
662,22379
663,22379
664,22379
665,22379
666,22379
667,22379
668,22379
669,22379
670,22379
671,22379
672,22379
673,22379
674,22379
675,22379
676,22379
677,22379
678,22379
679,22379
680,22379
681,22379
682,22379
683,22379
684,22379
685,22379
686,22379
687,22379
688,22379
689,22379
690,22379
691,22379
692,22379
693,22379
694,22379
695,22379
696,22379
697,22379
698,22379
699,22379
700,22379
701,22379
702,22379
703,22379
704,22379
705,22379
706,22379
707,22379
708,22379
709,22379
710,22379
711,22379
712,22379
713,22379
714,22379
715,22379
716,22379
717,22379
718,22379
719,22379
720,22379
721,22379
722,22379
723,22379
724,22379
725,22379
726,22379
727,22379
728,22379
729,22379
730,22379
731,22379
732,22379
733,22379
734,22379
735,22379
736,22379
737,22379
738,22379
739,22379
740,22379
741,22379
742,22379
743,22379
744,22379
745,22379
746,22379
747,22379
748,22379
749,22379
750,22379
751,22379
752,22379
753,22379
754,22379
755,22379
756,22379
757,22379
758,22379
759,22379
760,22379
761,22379
762,22379
763,22379
764,22379
765,22379
766,22379
767,22379
768,22379
769,22379
770,22379
771,22379
772,22379
773,22379
774,22379
775,22379
776,22379
777,22379
778,22379
779,22379
780,22379
781,22379
782,22379
783,22379
784,22379
785,22379
786,22379
787,22379
788,22379
789,22379
790,22379
791,22379
792,22379
793,22379
794,22379
795,22379
796,22379
797,22379
798,22379
799,22379
800,22379
801,22379
802,22379
803,22379
804,22379
805,22379
806,22379
807,22379
808,22379
809,22379
810,22379
811,22379
812,22379
813,22379
814,22379
815,22379
816,22379
817,22379
818,22379
819,22379
820,22379
821,22379
822,22379
823,22379
824,22379
825,22379
826,22379
827,22379
828,22379
829,22379
830,22379
831,22379
832,22379
833,22379
834,22379
835,22379
836,22379
837,22379
838,22379
839,22379
840,22379
841,22379
842,22379
843,22379
844,22379
845,22379
846,22379
847,22379
848,22379
849,22379
850,22379
851,22379
852,22379
853,22379
854,22379
855,22379
856,22379
857,22379
858,22379
859,22379
860,22379
861,22379
862,22379
863,22379
864,22379
865,22379
866,22379
867,22379
868,22379
869,22379
870,22379
871,22379
872,22379
873,22379
874,22379
875,22379
876,22379
877,22379
878,22379
879,22379
880,22379
881,22379
882,22379
883,22379
884,22379
885,22379
886,22379
887,22379
888,22379
889,22379
890,22379
891,22379
892,22379
893,22379
894,22379
895,22379
896,22379
897,22379
898,22379
899,22379
900,22379
901,22379
902,22379
903,22379
904,22379
905,22379
906,22379
907,22379
908,22379
909,22379
910,22379
911,22379
912,22379
913,22379
914,22379
915,22379
916,22379
917,22379
918,22379
919,22379
920,22379
921,22379
922,22379
923,22379
924,22379
925,22379
926,22379
927,22379
928,22379
929,22379
930,22379
931,22379
932,22379
933,22379
934,22379
935,22379
936,22379
937,22379
938,22379
939,22379
940,22379
941,22379
942,22379
943,22379
944,22379
945,22379
946,22379
947,22379
948,22379
949,22379
950,22379
951,22379
952,22379
953,22379
954,22379
955,22379
956,22379
957,22379
958,22379
959,22379
960,22379
961,22379
962,22379
963,22379
964,22379
965,22379
966,22379
967,22379
968,22379
969,22379
970,22379
971,22379
972,22379
973,22379
974,22379
975,22379
976,22379
977,22379
978,22379
979,22379
980,22379
981,22379
982,22379
983,22379
984,22379
985,22379
986,22379
987,22379
988,22379
989,22379
990,22379
991,22379
992,22379
993,22379
994,22379
995,22379
996,22379
997,22379
998,22379
999,22379
1000,22379
1001,22379
1002,22379
1003,22379
1004,22379
1005,22379
1006,22379
1007,22379
1008,22379
1009,22379
1010,22379
1011,22379
1012,22379
1013,22379
1014,22379
1015,22379
1016,22379
1017,22379
1018,22379
1019,22379
1020,22379
1021,22379
1022,22379
1023,22379
1024,22379
1025,22379
1026,22379
1027,22379
1028,22379
1029,22379
1030,22379
1031,22379
1032,22379
1033,22379
1034,22379
1035,22379
1036,22379
1037,22379
1038,22379
1039,22379
1040,22379
1041,22379
1042,22379
1043,22379
1044,22379
1045,22379
1046,22379
1047,22379
1048,22379
1049,22379
1050,22379
1051,22379
1052,22379
1053,22379
1054,22379
1055,22379
1056,22379
1057,22379
1058,22379
1059,22379
1060,22379
1061,22379
1062,22379
1063,22379
1064,22379
1065,22379
1066,22379
1067,22379
1068,22379
1069,22379
1070,22379
1071,22379
1072,22379
1073,22379
1074,22379
1075,22379
1076,22379
1077,22379
1078,22379
1079,22379
1080,22379
1081,22379
1082,22379
1083,22379
1084,22379
1085,22379
1086,22379
1087,22379
1088,22379
1089,22379
1090,22379
1091,22379
1092,22379
1093,22379
1094,22379
1095,22379
1096,22379
1097,22379
1098,22379
1099,22495
1100,22495
1101,22625
1102,22625
1103,22625
1104,22625
1105,22625
1106,22625
1107,22625
1108,22625
1109,22625
1110,22625
1111,22625
1112,22625
1113,22625
1114,22625
1115,22625
1116,22625
1117,22625
1118,22625
1119,22625
1120,22625
1121,22625
1122,22625
1123,22625
1124,22625
1125,22625
1126,22625
1127,22625
1128,22625
1129,22625
1130,22625
1131,22625
1132,22625
1133,22625
1134,22625
1135,22625
1136,22625
1137,22625
1138,22625
1139,22625
1140,22625
1141,22625
1142,22625
1143,22625
1144,22625
1145,22625
1146,22625
1147,22625
1148,22625
1149,22625
1150,22625
1151,22625
1152,22625
1153,22625
1154,22625
1155,22625
1156,22625
1157,22625
1158,22625
1159,22625
1160,22625
1161,22625
1162,22625
1163,22625
1164,22625
1165,22625
1166,22625
1167,22625
1168,22625
1169,22625
1170,22625
1171,22625
1172,22625
1173,22625
1174,22625
1175,22625
1176,22625
1177,22625
1178,22625
1179,22625
1180,22625
1181,22625
1182,22625
1183,22625
1184,22625
1185,22625
1186,22625
1187,22625
1188,22625
1189,22625
1190,22625
1191,22625
1192,22625
1193,22625
1194,22625
1195,22625
1196,22625
1197,22625
1198,22625
1199,22625
1200,22625
1201,22625
1202,22625
1203,22625
1204,22625
1205,22625
1206,22625
1207,22625
1208,22625
1209,22625
1210,22625
1211,22625
1212,22625
1213,22625
1214,22625
1215,22625
1216,22625
1217,22625
1218,22625
1219,22625
1220,22625
1221,22625
1222,22625
1223,22625
1224,22625
1225,22625
1226,22625
1227,22625
1228,22625
1229,22625
1230,22625
1231,22625
1232,22625
1233,22625
1234,22625
1235,22625
1236,22625
1237,22625
1238,22625
1239,22625
1240,22625
1241,22625
1242,22625
1243,22625
1244,22625
1245,22625
1246,22625
1247,22625
1248,22625
1249,22625
1250,22625
1251,22625
1252,22625
1253,22625
1254,22625
1255,22625
1256,22625
1257,22625
1258,22625
1259,22625
1260,22625
1261,22625
1262,22625
1263,22625
1264,22625
1265,22625
1266,22625
1267,22625
1268,22625
1269,22625
1270,22625
1271,22625
1272,22625
1273,22625
1274,22625
1275,22625
1276,22625
1277,22625
1278,22625
1279,22625
1280,22625
1281,22625
1282,22625
1283,22625
1284,22625
1285,22625
1286,22625
1287,22625
1288,22625
1289,22625
1290,22625
1291,22625
1292,22625
1293,22625
1294,22625
1295,22625
1296,22625
1297,22625
1298,22625
1299,22625
1300,22625
1301,22625
1302,22625
1303,22625
1304,22625
1305,22625
1306,22625
1307,22625
1308,22625
1309,22625
1310,22625
1311,22625
1312,22625
1313,22625
1314,22625
1315,22625
1316,22625
1317,22625
1318,22625
1319,22625
1320,22625
1321,22625
1322,22625
1323,22625
1324,22625
1325,22625
1326,22625
1327,22625
1328,22625
1329,22625
1330,22625
1331,22625
1332,22625
1333,22625
1334,22625
1335,22625
1336,22625
1337,22625
1338,22625
1339,22625
1340,22625
1341,22625
1342,22625
1343,22625
1344,22625
1345,22625
1346,22625
1347,22625
1348,22625
1349,22625
1350,22625
1351,22625
1352,22625
1353,22625
1354,22625
1355,22625
1356,22625
1357,22625
1358,22625
1359,22625
1360,22625
1361,22625
1362,22625
1363,22625
1364,22625
1365,22625
1366,22625
1367,22625
1368,22625
1369,22625
1370,22625
1371,22625
1372,22625
1373,22625
1374,22625
1375,22625
1376,22625
1377,22625
1378,22625
1379,22625
1380,22625
1381,22625
1382,22625
1383,22625
1384,22625
1385,22625
1386,22625
1387,22625
1388,22625
1389,22625
1390,22625
1391,22625
1392,22625
1393,22625
1394,22625
1395,22625
1396,22625
1397,22625
1398,22625
1399,22625
1400,22625
1401,22625
1402,22625
1403,22625
1404,22625
1405,22625
1406,22625
1407,22625
1408,22625
1409,22625
1410,22625
1411,22625
1412,22625
1413,22625
1414,22625
1415,22625
1416,22625
1417,22625
1418,22625
1419,22625
1420,22625
1421,22625
1422,22625
1423,22625
1424,22625
1425,22625
1426,22625
1427,22625
1428,22625
1429,22625
1430,22625
1431,22625
1432,22625
1433,22625
1434,22625
1435,22625
1436,22625
1437,22625
1438,22625
1439,22625
1440,22625
1441,22625
1442,22625
1443,22625
1444,22625
1445,22625
1446,22625
1447,22625
1448,22625
1449,22625
1450,22625
1451,22625
1452,22625
1453,22625
1454,22625
1455,22625
1456,22625
1457,22625
1458,22625
1459,22625
1460,22625
1461,22625
1462,22625
1463,22625
1464,22625
1465,22625
1466,22625
1467,22625
1468,22625
1469,22625
1470,22625
1471,22625
1472,22625
1473,22625
1474,22625
1475,22625
1476,22625
1477,22625
1478,22625
1479,22625
1480,22625
1481,22625
1482,22625
1483,22625
1484,22625
1485,22625
1486,22625
1487,22625
1488,22625
1489,22625
1490,22625
1491,22625
1492,22625
1493,22625
1494,22625
1495,22625
1496,22625
1497,22625
1498,22625
1499,22625
1500,22625
1501,22625
1502,22625
1503,22625
1504,22625
1505,22625
1506,22625
1507,22625
1508,22625
1509,22625
1510,22625
1511,22625
1512,22625
1513,22625
1514,22625
1515,22625
1516,22625
1517,22625
1518,22625
1519,22625
1520,22625
1521,22625
1522,22625
1523,22625
1524,22625
1525,22625
1526,22625
1527,22625
1528,22625
1529,22625
1530,22625
1531,22625
1532,22625
1533,22625
1534,22625
1535,22625
1536,22625
1537,22625
1538,22625
1539,22625
1540,22625
1541,22625
1542,22625
1543,22625
1544,22625
1545,22625
1546,22625
1547,22625
1548,22625
1549,22625
1550,22625
1551,22625
1552,22625
1553,22625
1554,22625
1555,22625
1556,22625
1557,22625
1558,22625
1559,22625
1560,22625
1561,22625
1562,22625
1563,22625
1564,22625
1565,22625
1566,22625
1567,22625
1568,22625
1569,22625
1570,22625
1571,22625
1572,22625
1573,22625
1574,22625
1575,22625
1576,22625
1577,22625
1578,22625
1579,22625
1580,22625
1581,22625
1582,22625
1583,22625
1584,22625
1585,22625
1586,22625
1587,22625
1588,22625
1589,22625
1590,22625
1591,22625
1592,22625
1593,22625
1594,22625
1595,22625
1596,22625
1597,22625
1598,22625
1599,22625
1600,22625
1601,22625
1602,22625
1603,22625
1604,22625
1605,22625
1606,22625
1607,22625
1608,22625
1609,22625
1610,22625
1611,22625
1612,22864
1613,22864
1614,22864
1615,22864
1616,22864
1617,22864
1618,22864
1619,22864
1620,22864
1621,22864
1622,22864
1623,22864
1624,22864
1625,22864
1626,22864
1627,22864
1628,22864
1629,22864
1630,22864
1631,22864
1632,22864
1633,22864
1634,22864
1635,22864
1636,22864
1637,22864
1638,22864
1639,22864
1640,22864
1641,22864
1642,22864
1643,22864
1644,22864
1645,22864
1646,22864
1647,22864
1648,22864
1649,22864
1650,22864
1651,22864
1652,22864
1653,22864
1654,22864
1655,22864
1656,22864
1657,22864
1658,22864
1659,22864
1660,22864
1661,22864
1662,22864
1663,22864
1664,22864
1665,22864
1666,22864
1667,22864
1668,22864
1669,22864
1670,22864
1671,22864
1672,22864
1673,22864
1674,22864
1675,22864
1676,22864
1677,22864
1678,22864
1679,22864
1680,22864
1681,22864
1682,22864
1683,22864
1684,22864
1685,22864
1686,22864
1687,22864
1688,22864
1689,22864
1690,22864
1691,22864
1692,22864
1693,22864
1694,22864
1695,22864
1696,22864
1697,22864
1698,22864
1699,22864
1700,22864
1701,22864
1702,22864
1703,22864
1704,22864
1705,22864
1706,22864
1707,22864
1708,22864
1709,22864
1710,22864
1711,22864
1712,22864
1713,22864
1714,22864
1715,22864
1716,22864
1717,22864
1718,22864
1719,22864
1720,22864
1721,22864
1722,22864
1723,22864
1724,22864
1725,22864
1726,22864
1727,22864
1728,22864
1729,22864
1730,22864
1731,22864
1732,22864
1733,22864
1734,22864
1735,22864
1736,22864
1737,22864
1738,22864
1739,22864
1740,22864
1741,22864
1742,22864
1743,22864
1744,22864
1745,22864
1746,22864
1747,22864
1748,22864
1749,22864
1750,22864
1751,22864
1752,22864
1753,22864
1754,22864
1755,22864
1756,22864
1757,22864
1758,22864
1759,22864
1760,22864
1761,22864
1762,22864
1763,22864
1764,22864
1765,22864
1766,22864
1767,22864
1768,22864
1769,22864
1770,22864
1771,22864
1772,22864
1773,22864
1774,22864
1775,22864
1776,22864
1777,22864
1778,22864
1779,22864
1780,22864
1781,22864
1782,22864
1783,22864
1784,22864
1785,22864
1786,22864
1787,22864
1788,22864
1789,22864
1790,22864
1791,22864
1792,22864
1793,22864
1794,22864
1795,22864
1796,22864
1797,22864
1798,22864
1799,22864
1800,22864
1801,22864
1802,22864
1803,22864
1804,22864
1805,22864
1806,22864
1807,22864
1808,22864
1809,22864
1810,22864
1811,22864
1812,22864
1813,22864
1814,22864
1815,22864
1816,22864
1817,22864
1818,22864
1819,22864
1820,22864
1821,22864
1822,22864
1823,22864
1824,22864
1825,22864
1826,22864
1827,22864
1828,22864
1829,22864
1830,22864
1831,22864
1832,22864
1833,22864
1834,22864
1835,22864
1836,22864
1837,22864
1838,22864
1839,22864
1840,22864
1841,22864
1842,22864
1843,22864
1844,22864
1845,22864
1846,22864
1847,22864
1848,22920
1849,22920
1850,22920
1851,22920
1852,22920
1853,22920
1854,22920
1855,22920
1856,22920
1857,22920
1858,22920
1859,22920
1860,22920
1861,22920
1862,22920
1863,22920
1864,22920
1865,22920
1866,22920
1867,22920
1868,22920
1869,22920
1870,22920
1871,22920
1872,22920
1873,22920
1874,22920
1875,22920
1876,22920
1877,22920
1878,22920
1879,22920
1880,22920
1881,22920
1882,22920
1883,22920
1884,22920
1885,22920
1886,22920
1887,22920
1888,22920
1889,22920
1890,22920
1891,22920
1892,22920
1893,22920
1894,22920
1895,22920
1896,22920
1897,22920
1898,22920
1899,22920
1900,22920
1901,22920
1902,22920
1903,22920
1904,22920
1905,22920
1906,22920
1907,22920
1908,22920
1909,22920
1910,22920
1911,22920
1912,22920
1913,22920
1914,22920
1915,22920
1916,22920
1917,22920
1918,22920
1919,22920
1920,22920
1921,22920
1922,22920
1923,22920
1924,22920
1925,22920
1926,22920
1927,22920
1928,22920
1929,22920
1930,22920
1931,22920
1932,22920
1933,22920
1934,22920
1935,22920
1936,22920
1937,22920
1938,22920
1939,22920
1940,22920
1941,22920
1942,22920
1943,22920
1944,22920
1945,22920
1946,22920
1947,22920
1948,22920
1949,22920
1950,22920
1951,22920
1952,22920
1953,22920
1954,22920
1955,22920
1956,22920
1957,22920
1958,22920
1959,22920
1960,22920
1961,22920
1962,22920
1963,22920
1964,22920
1965,22920
1966,22920
1967,22920
1968,22920
1969,22920
1970,22920
1971,22920
1972,22920
1973,22920
1974,22920
1975,22920
1976,22920
1977,22920
1978,22920
1979,22920
1980,22920
1981,22920
1982,22920
1983,22920
1984,22920
1985,22920
1986,22920
1987,22920
1988,22920
1989,22920
1990,22920
1991,22920
1992,22920
1993,22920
1994,22920
1995,22920
1996,22920
1997,22920
1998,22920
1999,22920
2000,22920
2001,22920
2002,22920
2003,22920
2004,22920
2005,22920
2006,22920
2007,22920
2008,22920
2009,22920
2010,22920
2011,22920
2012,22920
2013,22920
2014,22920
2015,22920
2016,22920
2017,22920
2018,22920
2019,22920
2020,22920
2021,22920
2022,22920
2023,22920
2024,22920
2025,22920
2026,22920
2027,22920
2028,22920
2029,22920
2030,22920
2031,22920
2032,22920
2033,22920
2034,22920
2035,22920
2036,22920
2037,22920
2038,22920
2039,22920
2040,22920
2041,22920
2042,22920
2043,22920
2044,22920
2045,22920
2046,22920
2047,22920
2048,22920
2049,22920
2050,22920
2051,22920
2052,22920
2053,22920
2054,22920
2055,22920
2056,22920
2057,22920
2058,22920
2059,22920
2060,22920
2061,22920
2062,22920
2063,22920
2064,22920
2065,22920
2066,22920
2067,22920
2068,22920
2069,22920
2070,22920
2071,22920
2072,22920
2073,22920
2074,22920
2075,22920
2076,22920
2077,22920
2078,22920
2079,22920
2080,22920
2081,22920
2082,22920
2083,22920
2084,22920
2085,22920
2086,22920
2087,22920
2088,22920
2089,22920
2090,22920
2091,22920
2092,22920
2093,22920
2094,22920
2095,22920
2096,22920
2097,22920
2098,22920
2099,22920
2100,22920
2101,22920
2102,22920
2103,22920
2104,22920
2105,22920
2106,22920
2107,22920
2108,22920
2109,22920
2110,22920
2111,22920
2112,22920
2113,22920
2114,22920
2115,22920
2116,22920
2117,22920
2118,22920
2119,22920
2120,22920
2121,22920
2122,22920
2123,22920
2124,22920
2125,22920
2126,22920
2127,22920
2128,22920
2129,22920
2130,22920
2131,22920
2133,22920
2134,22920
2135,22920
2136,22920
2137,22920
2138,22920
2139,22920
2140,22920
2141,22920
2142,22920
2143,22920
2144,22920
2145,22920
2146,22920
2147,22920
2148,22920
2149,22920
2150,22920
2151,22920
2152,22920
2153,22920
2154,22920
2155,22920
2156,22920
2157,22920
2158,22920
2159,22920
2160,22920
2161,22920
2162,22920
2163,22920
2164,22920
2165,22920
2166,22920
2167,22920
2168,22920
2169,22920
2170,22920
2171,22920
2172,22920
2173,22920
2174,22920
2175,22920
2176,22920
2177,22920
2178,22920
2179,22920
2180,22920
2181,22920
2182,22920
2183,22920
2184,22920
2185,22920
2186,22920
2187,22920
2188,22920
2189,22920
2190,22920
2191,22920
2192,22920
2193,22920
2194,22920
2195,22920
2196,22920
2197,22920
2198,22920
2199,22920
2200,22920
2201,22920
2202,22920
2203,22920
2204,22920
2205,22920
2206,22920
2207,22920
2208,22920
2209,22920
2210,22920
2211,22920
2212,22920
2213,22920
2214,22920
2215,22920
2216,22920
2217,22920
2218,22920
2219,22920
2220,22920
2221,22920
2222,22920
2223,22920
2224,22920
2225,22920
2226,22920
2227,22920
2228,22920
2229,22920
2230,22920
2231,22920
2232,22920
2233,22920
2234,22920
2235,22920
2236,22920
2237,22920
2238,22920
2239,22920
2240,22920
2241,22920
2242,22920
2243,22920
2244,22920
2245,22920
2246,22920
2247,22920
2248,22920
2249,22920
2250,22920
2251,22920
2252,22920
2253,22920
2254,22920
2255,22920
2256,22920
2257,22920
2258,22920
2259,22920
2260,22920
2261,22920
2262,22920
2263,22920
2264,22920
2265,22920
2266,22920
2267,22920
2268,22920
2269,22920
2270,22920
2271,22920
2272,22920
2273,22920
2274,22920
2275,22920
2276,22920
2277,22920
2278,22920
2279,22920
2280,22920
2281,22920
2282,22920
2283,22920
2284,22920
2285,22920
2286,22920
2287,22920
2288,22920
2289,22920
2290,22920
2291,22920
2292,22920
2293,22920
2294,22920
2295,22920
2296,22920
2297,22920
2298,22920
2299,22920
2300,22920
2301,22920
2302,22920
2303,22920
2304,22920
2305,22920
2306,22920
2307,22920
2308,22920
2309,22920
2310,22920
2311,22920
2312,22920
2313,22920
2314,22920
2315,22920
2316,22920
2317,22920
2318,22920
2319,22920
2320,22920
2321,22920
2322,22920
2323,22920
2324,22920
2325,22920
2326,22920
2327,22920
2328,22920
2329,22920
2330,22920
2331,22920
2332,22920
2333,22920
2334,22920
2335,22920
2336,22920
2337,22920
2338,22920
2339,22920
2340,22920
2341,22920
2342,22920
2343,22920
2344,22920
2345,22920
2346,22920
2347,22920
2348,22920
2349,22920
2350,22920
2351,22920
2352,22920
2353,22920
2354,22920
2355,22920
2356,22920
2357,22920
2358,22920
2359,22920
2360,22920
2361,22920
2362,22920
2363,22920
2364,22920
2365,22920
2366,22920
2367,22920
2368,22920
2369,22920
2370,22920
2371,22920
2372,22920
2373,22920
2374,22920
2375,22920
2376,22920
2377,22920
2378,22920
2379,22920
2380,22920
2381,22920
2382,22920
2383,22920
2384,22920
2385,22920
2386,22920
2387,22920
2388,22920
2389,22920
2390,22920
2391,22920
2392,22920
2393,22920
2394,22920
2395,22920
2396,22920
2397,22920
2398,22920
2399,22920
2400,22920
2401,22920
2402,22920
2403,22920
2404,22920
2405,22920
2406,22920
2407,22920
2408,22920
2409,22920
2410,22920
2411,22920
2412,22920
2413,22920
2414,22920
2415,22920
2416,22920
2417,22920
2418,22920
2419,22920
2420,22920
2421,22920
2422,22920
2423,22920
2424,22920
2425,22920
2426,22920
2427,22920
2428,22920
2429,22920
2430,22920
2431,22920
2432,22920
2433,22920
2434,22920
2435,22920
2436,22920
2437,22920
2438,22920
2439,22920
2440,22920
2441,22920
2442,22920
2443,22920
2444,22920
2445,22920
2446,22920
2447,22920
2448,22920
2449,22920
2450,22920
2451,22920
2452,22920
2453,22920
2454,22920
2455,22920
2456,22920
2457,22920
2458,22920
2459,22920
2460,22920
2461,22920
2462,22920
2463,22920
2464,22920
2465,22920
2466,22920
2467,22920
2468,22920
2469,22920
2470,22920
2471,22920
2472,22920
2473,22920
2474,22920
2475,22920
2476,22920
2477,22920
2478,22920
2479,22920
2480,22920
2481,22920
2482,22920
2483,22920
2484,22920
2485,22920
2486,22920
2487,22920
2488,22920
2489,22920
2490,22920
2491,22920
2492,22920
2493,22920
2494,22920
2495,22920
2496,22920
2497,22920
2498,22920
2499,22920
2500,22920
2501,22920
2502,22920
2503,22920
2504,22920
2505,22920
2506,22920
2507,22920
2508,22920
2509,22920
2510,22920
2511,22920
2512,22920
2513,22920
2514,22920
2515,22920
2516,22920
2517,22920
2518,22920
2519,22920
2520,22920
2521,22920
2522,22920
2523,22920
2524,22920
2525,22920
2526,22920
2527,22920
2528,22920
2529,22920
2530,22920
2531,22920
2532,22920
2533,22920
2534,22920
2535,22920
2536,22920
2537,22920
2538,22920
2539,22920
2540,22920
2541,22920
2542,22920
2543,22920
2544,22920
2545,22920
2546,22920
2547,22920
2548,22920
2549,22920
2550,22920
2551,22920
2552,22920
2553,22920
2554,22920
2555,22920
2556,22920
2557,22920
2558,22920
2559,22920
2560,22920
2561,22920
2562,22920
2563,22920
2564,22920
2565,22920
2566,22920
2567,22920
2568,22920
2569,22920
2570,22920
2571,22920
2572,22920
2573,22920
2574,22920
2575,22920
2576,22920
2577,22920
2578,22920
2579,22920
2580,22920
2581,22920
2582,22920
2583,22920
2584,22920
2585,22920
2586,22920
2587,22920
2588,22920
2589,22920
2590,22920
2591,22920
2592,22920
2593,22920
2594,22920
2595,22920
2596,22920
2597,22920
2598,22920
2599,22920
2600,22920
2601,22920
2602,22920
2603,22920
2604,22920
2605,22920
2606,22920
2607,22920
2608,22920
2609,22920
2610,22920
2611,22920
2612,22920
2613,22920
2614,22920
2615,22920
2616,22920
2617,22920
2618,22920
2619,22920
2620,22920
2621,22920
2622,22920
2623,22920
2624,22920
2625,22920
2626,22920
2627,22920
2628,22920
2629,22920
2630,22920
2631,22920
2632,22920
2633,22920
2634,22920
2635,22920
2636,22920
2637,22920
2638,22920
2639,22920
2640,22920
2641,22920
2642,22920
2643,22920
2644,22920
2645,22920
2646,22920
2647,22920
2648,22920
2649,22920
2650,22920
2651,22920
2652,22920
2653,22920
2654,22920
2655,22920
2656,22920
2657,22920
2658,22920
2659,22920
2660,22920
2661,22920
2662,22920
2663,22920
2664,22920
2665,22920
2666,22920
2667,22920
2668,22920
2669,22920
2670,22920
2671,22920
2672,22920
2673,22920
2674,22920
2675,22920
2676,22920
2677,22920
2678,22920
2679,22920
2680,22920
2681,22920
2682,22920
2683,22920
2684,22920
2685,22920
2686,22920
2687,22920
2688,22920
2689,22920
2690,22920
2691,22920
2692,22920
2693,22948
2694,22948
2695,22948
2696,22948
2697,22948
2698,22948
2699,22948
2700,22948
2701,22948
2702,22948
2703,22948
2704,22948
2705,22948
2706,22948
2707,22948
2708,22948
2709,22948
2710,22948
2711,22948
2712,22948
2713,22948
2714,22948
2715,22948
2716,22948
2717,22948
2718,22948
2719,22948
2720,22948
2721,22948
2722,22948
2723,22948
2724,22948
2725,22948
2726,22948
2727,22948
2728,22948
2729,22948
2730,22948
2731,22948
2732,22948
2733,22948
2734,22948
2735,22948
2736,22948
2737,22948
2738,22948
2739,22948
2740,22948
2741,22948
2742,22948
2743,22948
2744,22948
2745,22948
2746,22948
2747,22948
2748,22948
2749,22948
2750,22948
2751,22948
2752,22948
2753,22948
2754,22948
2755,22948
2756,22948
2757,22948
2758,22948
2759,22948
2760,22948
2761,22948
2762,22948
2763,22948
2764,22948
2765,22948
2766,22948
2767,22948
2768,22948
2769,22948
2770,22948
2771,22948
2772,22948
2773,22948
2774,22948
2775,22948
2776,22948
2777,22948
2778,22948
2779,22948
2780,22948
2781,22948
2782,22948
2783,22948
2784,22948
2785,22948
2786,22948
2787,22948
2788,22948
2789,22948
2790,22948
2791,22948
2792,22948
2793,22948
2794,22948
2795,22948
2796,22948
2797,22948
2798,22948
2799,22948
2800,22948
2801,22948
2802,22948
2803,22948
2804,22948
2805,22948
2806,22948
2807,22948
2808,22948
2809,22948
2810,22948
2811,22948
2812,22948
2813,22948
2814,22948
2815,22948
2816,22948
2817,22948
2818,22948
2819,22948
2820,22948
2821,22948
2822,22948
2823,22948
2824,22948
2825,22948
2826,22948
2827,22948
2828,22948
2829,22948
2830,22948
2831,22948
2832,22948
2833,22948
2834,22948
2835,22948
2836,22948
2837,22948
2838,22948
2839,22948
2840,22948
2841,22948
2842,22948
2843,22948
2844,22948
2845,22948
2846,22948
2847,22948
2848,22948
2849,22948
2850,22948
2851,22948
2852,22948
2853,22948
2854,22948
2855,22948
2856,22948
2857,22948
2858,22948
2859,22948
2860,22948
2861,22948
2862,22948
2863,22948
2864,22948
2865,22948
2866,22948
2867,22948
2868,22948
2869,22948
2870,22948
2871,22948
2872,22948
2873,22948
2874,22948
2875,22948
2876,22948
2877,22948
2878,22948
2879,22948
2880,22948
2881,22948
2882,22948
2883,22948
2884,22948
2885,22948
2886,22948
2887,22948
2888,22948
2889,22948
2890,22948
2891,22948
2892,22948
2893,22948
2894,22948
2895,22948
2896,22948
2897,22948
2898,22948
2899,22948
2900,22948
2901,22948
2902,22948
2903,22948
2904,22948
2905,22948
2906,22948
2907,22948
2908,22948
2909,22948
2910,22948
2911,22948
2912,22948
2913,22948
2914,22948
2915,22948
2916,22948
2917,22948
2918,22948
2919,22948
2920,22948
2921,22948
2922,22948
2923,22948
2924,22948
2925,22948
2926,22948
2927,22948
2928,22948
2929,22948
2930,22948
2931,22948
2932,22948
2933,22948
2934,22948
2935,22948
2936,22948
2937,22948
2938,22948
2939,22948
2940,22948
2941,22948
2942,22948
2943,22948
2944,22948
2945,22948
2946,22948
2947,22948
2948,22948
2949,22948
2950,22948
2951,22948
2952,22948
2953,22948
2954,22948
2955,22948
2956,22948
2957,22948
2958,22948
2959,22948
2960,22948
2961,22948
2962,22948
2963,22948
2964,22948
2965,22948
2966,22948
2967,22948
2968,22948
2969,22948
2970,22948
2971,22948
2972,22948
2973,22948
2974,22948
2975,22948
2976,22948
2977,22948
2978,22948
2979,22948
2980,22948
2981,22948
2982,22948
2983,22948
2984,22948
2985,22948
2986,22948
2987,22948
2988,22948
2989,22948
2990,22948
2991,22948
2992,22948
2993,22948
2994,22948
2995,22948
2996,22948
2997,22948
2998,22948
2999,22948
3000,22948
